% demand
num_movements = 26;
loading_factor = [1000, 850, 1250, 1550, 1100, 1200, 1050, 1050, 800, 1350, 1050, 1150, 1400, 900, 1050, 950, 850, 1700, 1600, 850, 1600, 1100, 1850, 1950, 1500, 950];
pickup_time = [0, 0, 0, 2, 2, 2, 3, 3, 3, 3, 3, 3, 7, 9, 9, 10, 10, 10, 10, 11, 11, 11, 11, 12, 12, 12];
delivery_time = [3, 3, 1, 3, 3, 3, 9, 9, 10, 10, 9, 6, 9, 10, 11, 11, 11, 11, 12, 12, 12, 12, 13, 13, 13, 13];

% transporter definition
total_capacity = 7000;
num_decks = 3;
capacity = [3000, 1000, 3000];

% ways out of decks
num_ways_out = 1;
paths_out = array3d(decks, ways_out, decks, [
% ways out of deck d1
2, 3, 0, 

% ways out of deck d2
3, 0, 0, 

% ways out of deck d3
0, 0, 0,	

]);

